p cnf 64 235
3 1 0
3 -2 0
-1 2 -3 0
2 -4 -5 0
-2 4 -5 0
2 4 5 0
-2 -4 5 0
6 5 -7 0
-6 -5 -7 0
6 -5 7 0
-6 5 7 0
8 5 0
8 7 0
-5 -7 -8 0
3 8 -9 0
-3 -8 -9 0
3 -8 9 0
-3 8 9 0
-10 2 -11 0
10 -2 -11 0
-10 -2 11 0
10 2 11 0
-14 -12 0
-14 13 0
12 -13 14 0
-15 -5 0
-15 -14 0
5 14 15 0
15 -16 0
-15 -16 0
11 -16 -17 0
-11 16 -17 0
11 16 17 0
-11 -16 17 0
-9 -17 -18 0
9 17 -18 0
-9 17 18 0
9 -17 18 0
20 -1 0
20 19 0
1 -19 -20 0
-19 -20 -21 0
19 20 -21 0
-19 20 21 0
19 -20 21 0
-22 -1 0
-22 -19 0
1 19 22 0
-23 13 0
-23 22 0
-13 -22 23 0
24 21 0
24 -23 0
-21 23 -24 0
25 -13 0
25 -10 0
13 10 -25 0
20 25 -26 0
-20 -25 -26 0
20 -25 26 0
-20 25 26 0
27 26 0
27 -3 0
-26 3 -27 0
24 -27 -28 0
-24 27 -28 0
24 27 28 0
-24 -27 28 0
-26 -1 -29 0
26 1 -29 0
-26 1 29 0
26 -1 29 0
30 22 0
30 29 0
-22 -29 -30 0
28 30 -31 0
-28 -30 -31 0
28 -30 31 0
-28 30 31 0
-32 -8 0
-32 -14 0
8 14 32 0
19 -6 -33 0
-19 6 -33 0
19 6 33 0
-19 -6 33 0
-34 -32 0
-34 -33 0
32 33 34 0
35 -25 0
35 -14 0
25 14 -35 0
-36 34 0
-36 -35 0
-34 35 36 0
38 -26 0
38 -37 0
26 37 -38 0
36 38 -39 0
-36 -38 -39 0
36 -38 39 0
-36 38 39 0
-14 -37 -40 0
14 37 -40 0
-14 37 40 0
14 -37 40 0
41 -35 0
41 8 0
35 -8 -41 0
-42 40 0
-42 41 0
-40 -41 42 0
-43 39 0
-43 42 0
-39 -42 43 0
-31 43 -44 0
31 -43 -44 0
-31 -43 44 0
31 43 44 0
18 -44 -45 0
-18 44 -45 0
18 44 45 0
-18 -44 45 0
46 -33 0
46 -13 0
33 13 -46 0
47 -13 0
47 19 0
13 -19 -47 0
-48 -5 0
-48 13 0
5 -13 48 0
-47 -48 -49 0
47 48 -49 0
-47 48 49 0
47 -48 49 0
50 -46 0
50 49 0
46 -49 -50 0
-51 12 0
-51 -37 0
-12 37 51 0
52 -14 0
52 -51 0
14 51 -52 0
53 50 0
53 -52 0
-50 52 -53 0
14 -4 -54 0
-14 4 -54 0
14 4 54 0
-14 -4 54 0
-55 -51 0
-55 -4 0
51 4 55 0
-56 -55 0
-56 26 0
55 -26 56 0
57 -56 0
57 20 0
56 -20 -57 0
58 -29 0
58 19 0
29 -19 -58 0
60 58 0
60 -59 0
-58 59 -60 0
57 -60 -61 0
-57 60 -61 0
57 60 61 0
-57 -60 61 0
62 54 0
62 61 0
-54 -61 -62 0
-63 53 0
-63 -62 0
-53 62 63 0
64 -45 0
64 63 0
45 -63 -64 0
2 -58 -38 -25 6 1 0
49 -11 -50 -1 0
-37 -55 7 -18 50 0
64 -24 -20 0
-19 -52 -16 -4 0
48 -24 0
-63 -53 -44 32 0
15 45 -9 0
-23 11 -46 -14 -58 0
58 -44 54 9 -10 0
4 -27 0
27 56 -23 -49 13 0
44 -37 0
-46 7 41 0
-49 36 17 0
6 -25 -50 -59 0
-25 -32 16 45 -10 0
36 20 -56 0
-13 25 17 3 -37 0
-24 -13 -40 10 0
1 -24 32 0
64 9 35 -18 -44 0
19 -53 -60 28 0
-11 -61 -48 0
31 -43 0
-56 -39 10 0
-22 8 48 0
-5 -50 -58 2 0
63 28 31 54 0
8 -17 4 62 0
-12 -58 1 -63 45 0
-13 -12 10 22 0
20 7 -37 48 62 0
-25 -51 0
7 -14 -28 -26 0
-12 -62 0
42 -5 -49 -64 0
-61 52 -6 -25 0
57 -46 0
14 -40 26 -51 0
-17 -34 -44 -6 -22 0
31 -6 -60 58 0
-19 -35 0
-14 3 -41 0
14 1 -30 -24 17 0
-37 -2 58 7 17 0
55 -36 33 0
-14 -57 -28 8 0
-59 35 -16 60 0
62 -63 0
23 48 57 60 64 0
18 -19 -62 -51 4 0
-38 -41 0
36 -18 22 8 32 57 0
64 0
